%
% Ormat game overlays for n=5
% To be used with the MiniZinc mode
% http://www.hakank.org/minizinc/ormat_game.mzn
%
n = 5;
overlays = array3d(1..f,1..n,1..n,
[
0, 0, 0, 0, 1, 
0, 0, 0, 1, 0, 
0, 0, 1, 0, 0, 
0, 1, 0, 0, 0, 
1, 0, 0, 0, 0, 

0, 0, 0, 1, 0, 
0, 0, 0, 0, 1, 
0, 0, 1, 0, 0, 
0, 1, 0, 0, 0, 
1, 0, 0, 0, 0, 

0, 0, 0, 0, 1, 
0, 0, 1, 0, 0, 
0, 0, 0, 1, 0, 
0, 1, 0, 0, 0, 
1, 0, 0, 0, 0, 

0, 0, 1, 0, 0, 
0, 0, 0, 0, 1, 
0, 0, 0, 1, 0, 
0, 1, 0, 0, 0, 
1, 0, 0, 0, 0, 

0, 0, 0, 1, 0, 
0, 0, 1, 0, 0, 
0, 0, 0, 0, 1, 
0, 1, 0, 0, 0, 
1, 0, 0, 0, 0, 

0, 0, 1, 0, 0, 
0, 0, 0, 1, 0, 
0, 0, 0, 0, 1, 
0, 1, 0, 0, 0, 
1, 0, 0, 0, 0, 

0, 0, 0, 0, 1, 
0, 0, 0, 1, 0, 
0, 1, 0, 0, 0, 
0, 0, 1, 0, 0, 
1, 0, 0, 0, 0, 

0, 0, 0, 1, 0, 
0, 0, 0, 0, 1, 
0, 1, 0, 0, 0, 
0, 0, 1, 0, 0, 
1, 0, 0, 0, 0, 

0, 0, 0, 0, 1, 
0, 1, 0, 0, 0, 
0, 0, 0, 1, 0, 
0, 0, 1, 0, 0, 
1, 0, 0, 0, 0, 

0, 1, 0, 0, 0, 
0, 0, 0, 0, 1, 
0, 0, 0, 1, 0, 
0, 0, 1, 0, 0, 
1, 0, 0, 0, 0, 

0, 0, 0, 1, 0, 
0, 1, 0, 0, 0, 
0, 0, 0, 0, 1, 
0, 0, 1, 0, 0, 
1, 0, 0, 0, 0, 

0, 1, 0, 0, 0, 
0, 0, 0, 1, 0, 
0, 0, 0, 0, 1, 
0, 0, 1, 0, 0, 
1, 0, 0, 0, 0, 

0, 0, 0, 0, 1, 
0, 0, 1, 0, 0, 
0, 1, 0, 0, 0, 
0, 0, 0, 1, 0, 
1, 0, 0, 0, 0, 

0, 0, 1, 0, 0, 
0, 0, 0, 0, 1, 
0, 1, 0, 0, 0, 
0, 0, 0, 1, 0, 
1, 0, 0, 0, 0, 

0, 0, 0, 0, 1, 
0, 1, 0, 0, 0, 
0, 0, 1, 0, 0, 
0, 0, 0, 1, 0, 
1, 0, 0, 0, 0, 

0, 1, 0, 0, 0, 
0, 0, 0, 0, 1, 
0, 0, 1, 0, 0, 
0, 0, 0, 1, 0, 
1, 0, 0, 0, 0, 

0, 0, 1, 0, 0, 
0, 1, 0, 0, 0, 
0, 0, 0, 0, 1, 
0, 0, 0, 1, 0, 
1, 0, 0, 0, 0, 

0, 1, 0, 0, 0, 
0, 0, 1, 0, 0, 
0, 0, 0, 0, 1, 
0, 0, 0, 1, 0, 
1, 0, 0, 0, 0, 

0, 0, 0, 1, 0, 
0, 0, 1, 0, 0, 
0, 1, 0, 0, 0, 
0, 0, 0, 0, 1, 
1, 0, 0, 0, 0, 

0, 0, 1, 0, 0, 
0, 0, 0, 1, 0, 
0, 1, 0, 0, 0, 
0, 0, 0, 0, 1, 
1, 0, 0, 0, 0, 

0, 0, 0, 1, 0, 
0, 1, 0, 0, 0, 
0, 0, 1, 0, 0, 
0, 0, 0, 0, 1, 
1, 0, 0, 0, 0, 

0, 1, 0, 0, 0, 
0, 0, 0, 1, 0, 
0, 0, 1, 0, 0, 
0, 0, 0, 0, 1, 
1, 0, 0, 0, 0, 

0, 0, 1, 0, 0, 
0, 1, 0, 0, 0, 
0, 0, 0, 1, 0, 
0, 0, 0, 0, 1, 
1, 0, 0, 0, 0, 

0, 1, 0, 0, 0, 
0, 0, 1, 0, 0, 
0, 0, 0, 1, 0, 
0, 0, 0, 0, 1, 
1, 0, 0, 0, 0, 

0, 0, 0, 0, 1, 
0, 0, 0, 1, 0, 
0, 0, 1, 0, 0, 
1, 0, 0, 0, 0, 
0, 1, 0, 0, 0, 

0, 0, 0, 1, 0, 
0, 0, 0, 0, 1, 
0, 0, 1, 0, 0, 
1, 0, 0, 0, 0, 
0, 1, 0, 0, 0, 

0, 0, 0, 0, 1, 
0, 0, 1, 0, 0, 
0, 0, 0, 1, 0, 
1, 0, 0, 0, 0, 
0, 1, 0, 0, 0, 

0, 0, 1, 0, 0, 
0, 0, 0, 0, 1, 
0, 0, 0, 1, 0, 
1, 0, 0, 0, 0, 
0, 1, 0, 0, 0, 

0, 0, 0, 1, 0, 
0, 0, 1, 0, 0, 
0, 0, 0, 0, 1, 
1, 0, 0, 0, 0, 
0, 1, 0, 0, 0, 

0, 0, 1, 0, 0, 
0, 0, 0, 1, 0, 
0, 0, 0, 0, 1, 
1, 0, 0, 0, 0, 
0, 1, 0, 0, 0, 

0, 0, 0, 0, 1, 
0, 0, 0, 1, 0, 
1, 0, 0, 0, 0, 
0, 0, 1, 0, 0, 
0, 1, 0, 0, 0, 

0, 0, 0, 1, 0, 
0, 0, 0, 0, 1, 
1, 0, 0, 0, 0, 
0, 0, 1, 0, 0, 
0, 1, 0, 0, 0, 

0, 0, 0, 0, 1, 
1, 0, 0, 0, 0, 
0, 0, 0, 1, 0, 
0, 0, 1, 0, 0, 
0, 1, 0, 0, 0, 

1, 0, 0, 0, 0, 
0, 0, 0, 0, 1, 
0, 0, 0, 1, 0, 
0, 0, 1, 0, 0, 
0, 1, 0, 0, 0, 

0, 0, 0, 1, 0, 
1, 0, 0, 0, 0, 
0, 0, 0, 0, 1, 
0, 0, 1, 0, 0, 
0, 1, 0, 0, 0, 

1, 0, 0, 0, 0, 
0, 0, 0, 1, 0, 
0, 0, 0, 0, 1, 
0, 0, 1, 0, 0, 
0, 1, 0, 0, 0, 

0, 0, 0, 0, 1, 
0, 0, 1, 0, 0, 
1, 0, 0, 0, 0, 
0, 0, 0, 1, 0, 
0, 1, 0, 0, 0, 

0, 0, 1, 0, 0, 
0, 0, 0, 0, 1, 
1, 0, 0, 0, 0, 
0, 0, 0, 1, 0, 
0, 1, 0, 0, 0, 

0, 0, 0, 0, 1, 
1, 0, 0, 0, 0, 
0, 0, 1, 0, 0, 
0, 0, 0, 1, 0, 
0, 1, 0, 0, 0, 

1, 0, 0, 0, 0, 
0, 0, 0, 0, 1, 
0, 0, 1, 0, 0, 
0, 0, 0, 1, 0, 
0, 1, 0, 0, 0, 

0, 0, 1, 0, 0, 
1, 0, 0, 0, 0, 
0, 0, 0, 0, 1, 
0, 0, 0, 1, 0, 
0, 1, 0, 0, 0, 

1, 0, 0, 0, 0, 
0, 0, 1, 0, 0, 
0, 0, 0, 0, 1, 
0, 0, 0, 1, 0, 
0, 1, 0, 0, 0, 

0, 0, 0, 1, 0, 
0, 0, 1, 0, 0, 
1, 0, 0, 0, 0, 
0, 0, 0, 0, 1, 
0, 1, 0, 0, 0, 

0, 0, 1, 0, 0, 
0, 0, 0, 1, 0, 
1, 0, 0, 0, 0, 
0, 0, 0, 0, 1, 
0, 1, 0, 0, 0, 

0, 0, 0, 1, 0, 
1, 0, 0, 0, 0, 
0, 0, 1, 0, 0, 
0, 0, 0, 0, 1, 
0, 1, 0, 0, 0, 

1, 0, 0, 0, 0, 
0, 0, 0, 1, 0, 
0, 0, 1, 0, 0, 
0, 0, 0, 0, 1, 
0, 1, 0, 0, 0, 

0, 0, 1, 0, 0, 
1, 0, 0, 0, 0, 
0, 0, 0, 1, 0, 
0, 0, 0, 0, 1, 
0, 1, 0, 0, 0, 

1, 0, 0, 0, 0, 
0, 0, 1, 0, 0, 
0, 0, 0, 1, 0, 
0, 0, 0, 0, 1, 
0, 1, 0, 0, 0, 

0, 0, 0, 0, 1, 
0, 0, 0, 1, 0, 
0, 1, 0, 0, 0, 
1, 0, 0, 0, 0, 
0, 0, 1, 0, 0, 

0, 0, 0, 1, 0, 
0, 0, 0, 0, 1, 
0, 1, 0, 0, 0, 
1, 0, 0, 0, 0, 
0, 0, 1, 0, 0, 

0, 0, 0, 0, 1, 
0, 1, 0, 0, 0, 
0, 0, 0, 1, 0, 
1, 0, 0, 0, 0, 
0, 0, 1, 0, 0, 

0, 1, 0, 0, 0, 
0, 0, 0, 0, 1, 
0, 0, 0, 1, 0, 
1, 0, 0, 0, 0, 
0, 0, 1, 0, 0, 

0, 0, 0, 1, 0, 
0, 1, 0, 0, 0, 
0, 0, 0, 0, 1, 
1, 0, 0, 0, 0, 
0, 0, 1, 0, 0, 

0, 1, 0, 0, 0, 
0, 0, 0, 1, 0, 
0, 0, 0, 0, 1, 
1, 0, 0, 0, 0, 
0, 0, 1, 0, 0, 

0, 0, 0, 0, 1, 
0, 0, 0, 1, 0, 
1, 0, 0, 0, 0, 
0, 1, 0, 0, 0, 
0, 0, 1, 0, 0, 

0, 0, 0, 1, 0, 
0, 0, 0, 0, 1, 
1, 0, 0, 0, 0, 
0, 1, 0, 0, 0, 
0, 0, 1, 0, 0, 

0, 0, 0, 0, 1, 
1, 0, 0, 0, 0, 
0, 0, 0, 1, 0, 
0, 1, 0, 0, 0, 
0, 0, 1, 0, 0, 

1, 0, 0, 0, 0, 
0, 0, 0, 0, 1, 
0, 0, 0, 1, 0, 
0, 1, 0, 0, 0, 
0, 0, 1, 0, 0, 

0, 0, 0, 1, 0, 
1, 0, 0, 0, 0, 
0, 0, 0, 0, 1, 
0, 1, 0, 0, 0, 
0, 0, 1, 0, 0, 

1, 0, 0, 0, 0, 
0, 0, 0, 1, 0, 
0, 0, 0, 0, 1, 
0, 1, 0, 0, 0, 
0, 0, 1, 0, 0, 

0, 0, 0, 0, 1, 
0, 1, 0, 0, 0, 
1, 0, 0, 0, 0, 
0, 0, 0, 1, 0, 
0, 0, 1, 0, 0, 

0, 1, 0, 0, 0, 
0, 0, 0, 0, 1, 
1, 0, 0, 0, 0, 
0, 0, 0, 1, 0, 
0, 0, 1, 0, 0, 

0, 0, 0, 0, 1, 
1, 0, 0, 0, 0, 
0, 1, 0, 0, 0, 
0, 0, 0, 1, 0, 
0, 0, 1, 0, 0, 

1, 0, 0, 0, 0, 
0, 0, 0, 0, 1, 
0, 1, 0, 0, 0, 
0, 0, 0, 1, 0, 
0, 0, 1, 0, 0, 

0, 1, 0, 0, 0, 
1, 0, 0, 0, 0, 
0, 0, 0, 0, 1, 
0, 0, 0, 1, 0, 
0, 0, 1, 0, 0, 

1, 0, 0, 0, 0, 
0, 1, 0, 0, 0, 
0, 0, 0, 0, 1, 
0, 0, 0, 1, 0, 
0, 0, 1, 0, 0, 

0, 0, 0, 1, 0, 
0, 1, 0, 0, 0, 
1, 0, 0, 0, 0, 
0, 0, 0, 0, 1, 
0, 0, 1, 0, 0, 

0, 1, 0, 0, 0, 
0, 0, 0, 1, 0, 
1, 0, 0, 0, 0, 
0, 0, 0, 0, 1, 
0, 0, 1, 0, 0, 

0, 0, 0, 1, 0, 
1, 0, 0, 0, 0, 
0, 1, 0, 0, 0, 
0, 0, 0, 0, 1, 
0, 0, 1, 0, 0, 

1, 0, 0, 0, 0, 
0, 0, 0, 1, 0, 
0, 1, 0, 0, 0, 
0, 0, 0, 0, 1, 
0, 0, 1, 0, 0, 

0, 1, 0, 0, 0, 
1, 0, 0, 0, 0, 
0, 0, 0, 1, 0, 
0, 0, 0, 0, 1, 
0, 0, 1, 0, 0, 

1, 0, 0, 0, 0, 
0, 1, 0, 0, 0, 
0, 0, 0, 1, 0, 
0, 0, 0, 0, 1, 
0, 0, 1, 0, 0, 

0, 0, 0, 0, 1, 
0, 0, 1, 0, 0, 
0, 1, 0, 0, 0, 
1, 0, 0, 0, 0, 
0, 0, 0, 1, 0, 

0, 0, 1, 0, 0, 
0, 0, 0, 0, 1, 
0, 1, 0, 0, 0, 
1, 0, 0, 0, 0, 
0, 0, 0, 1, 0, 

0, 0, 0, 0, 1, 
0, 1, 0, 0, 0, 
0, 0, 1, 0, 0, 
1, 0, 0, 0, 0, 
0, 0, 0, 1, 0, 

0, 1, 0, 0, 0, 
0, 0, 0, 0, 1, 
0, 0, 1, 0, 0, 
1, 0, 0, 0, 0, 
0, 0, 0, 1, 0, 

0, 0, 1, 0, 0, 
0, 1, 0, 0, 0, 
0, 0, 0, 0, 1, 
1, 0, 0, 0, 0, 
0, 0, 0, 1, 0, 

0, 1, 0, 0, 0, 
0, 0, 1, 0, 0, 
0, 0, 0, 0, 1, 
1, 0, 0, 0, 0, 
0, 0, 0, 1, 0, 

0, 0, 0, 0, 1, 
0, 0, 1, 0, 0, 
1, 0, 0, 0, 0, 
0, 1, 0, 0, 0, 
0, 0, 0, 1, 0, 

0, 0, 1, 0, 0, 
0, 0, 0, 0, 1, 
1, 0, 0, 0, 0, 
0, 1, 0, 0, 0, 
0, 0, 0, 1, 0, 

0, 0, 0, 0, 1, 
1, 0, 0, 0, 0, 
0, 0, 1, 0, 0, 
0, 1, 0, 0, 0, 
0, 0, 0, 1, 0, 

1, 0, 0, 0, 0, 
0, 0, 0, 0, 1, 
0, 0, 1, 0, 0, 
0, 1, 0, 0, 0, 
0, 0, 0, 1, 0, 

0, 0, 1, 0, 0, 
1, 0, 0, 0, 0, 
0, 0, 0, 0, 1, 
0, 1, 0, 0, 0, 
0, 0, 0, 1, 0, 

1, 0, 0, 0, 0, 
0, 0, 1, 0, 0, 
0, 0, 0, 0, 1, 
0, 1, 0, 0, 0, 
0, 0, 0, 1, 0, 

0, 0, 0, 0, 1, 
0, 1, 0, 0, 0, 
1, 0, 0, 0, 0, 
0, 0, 1, 0, 0, 
0, 0, 0, 1, 0, 

0, 1, 0, 0, 0, 
0, 0, 0, 0, 1, 
1, 0, 0, 0, 0, 
0, 0, 1, 0, 0, 
0, 0, 0, 1, 0, 

0, 0, 0, 0, 1, 
1, 0, 0, 0, 0, 
0, 1, 0, 0, 0, 
0, 0, 1, 0, 0, 
0, 0, 0, 1, 0, 

1, 0, 0, 0, 0, 
0, 0, 0, 0, 1, 
0, 1, 0, 0, 0, 
0, 0, 1, 0, 0, 
0, 0, 0, 1, 0, 

0, 1, 0, 0, 0, 
1, 0, 0, 0, 0, 
0, 0, 0, 0, 1, 
0, 0, 1, 0, 0, 
0, 0, 0, 1, 0, 

1, 0, 0, 0, 0, 
0, 1, 0, 0, 0, 
0, 0, 0, 0, 1, 
0, 0, 1, 0, 0, 
0, 0, 0, 1, 0, 

0, 0, 1, 0, 0, 
0, 1, 0, 0, 0, 
1, 0, 0, 0, 0, 
0, 0, 0, 0, 1, 
0, 0, 0, 1, 0, 

0, 1, 0, 0, 0, 
0, 0, 1, 0, 0, 
1, 0, 0, 0, 0, 
0, 0, 0, 0, 1, 
0, 0, 0, 1, 0, 

0, 0, 1, 0, 0, 
1, 0, 0, 0, 0, 
0, 1, 0, 0, 0, 
0, 0, 0, 0, 1, 
0, 0, 0, 1, 0, 

1, 0, 0, 0, 0, 
0, 0, 1, 0, 0, 
0, 1, 0, 0, 0, 
0, 0, 0, 0, 1, 
0, 0, 0, 1, 0, 

0, 1, 0, 0, 0, 
1, 0, 0, 0, 0, 
0, 0, 1, 0, 0, 
0, 0, 0, 0, 1, 
0, 0, 0, 1, 0, 

1, 0, 0, 0, 0, 
0, 1, 0, 0, 0, 
0, 0, 1, 0, 0, 
0, 0, 0, 0, 1, 
0, 0, 0, 1, 0, 

0, 0, 0, 1, 0, 
0, 0, 1, 0, 0, 
0, 1, 0, 0, 0, 
1, 0, 0, 0, 0, 
0, 0, 0, 0, 1, 

0, 0, 1, 0, 0, 
0, 0, 0, 1, 0, 
0, 1, 0, 0, 0, 
1, 0, 0, 0, 0, 
0, 0, 0, 0, 1, 

0, 0, 0, 1, 0, 
0, 1, 0, 0, 0, 
0, 0, 1, 0, 0, 
1, 0, 0, 0, 0, 
0, 0, 0, 0, 1, 

0, 1, 0, 0, 0, 
0, 0, 0, 1, 0, 
0, 0, 1, 0, 0, 
1, 0, 0, 0, 0, 
0, 0, 0, 0, 1, 

0, 0, 1, 0, 0, 
0, 1, 0, 0, 0, 
0, 0, 0, 1, 0, 
1, 0, 0, 0, 0, 
0, 0, 0, 0, 1, 

0, 1, 0, 0, 0, 
0, 0, 1, 0, 0, 
0, 0, 0, 1, 0, 
1, 0, 0, 0, 0, 
0, 0, 0, 0, 1, 

0, 0, 0, 1, 0, 
0, 0, 1, 0, 0, 
1, 0, 0, 0, 0, 
0, 1, 0, 0, 0, 
0, 0, 0, 0, 1, 

0, 0, 1, 0, 0, 
0, 0, 0, 1, 0, 
1, 0, 0, 0, 0, 
0, 1, 0, 0, 0, 
0, 0, 0, 0, 1, 

0, 0, 0, 1, 0, 
1, 0, 0, 0, 0, 
0, 0, 1, 0, 0, 
0, 1, 0, 0, 0, 
0, 0, 0, 0, 1, 

1, 0, 0, 0, 0, 
0, 0, 0, 1, 0, 
0, 0, 1, 0, 0, 
0, 1, 0, 0, 0, 
0, 0, 0, 0, 1, 

0, 0, 1, 0, 0, 
1, 0, 0, 0, 0, 
0, 0, 0, 1, 0, 
0, 1, 0, 0, 0, 
0, 0, 0, 0, 1, 

1, 0, 0, 0, 0, 
0, 0, 1, 0, 0, 
0, 0, 0, 1, 0, 
0, 1, 0, 0, 0, 
0, 0, 0, 0, 1, 

0, 0, 0, 1, 0, 
0, 1, 0, 0, 0, 
1, 0, 0, 0, 0, 
0, 0, 1, 0, 0, 
0, 0, 0, 0, 1, 

0, 1, 0, 0, 0, 
0, 0, 0, 1, 0, 
1, 0, 0, 0, 0, 
0, 0, 1, 0, 0, 
0, 0, 0, 0, 1, 

0, 0, 0, 1, 0, 
1, 0, 0, 0, 0, 
0, 1, 0, 0, 0, 
0, 0, 1, 0, 0, 
0, 0, 0, 0, 1, 

1, 0, 0, 0, 0, 
0, 0, 0, 1, 0, 
0, 1, 0, 0, 0, 
0, 0, 1, 0, 0, 
0, 0, 0, 0, 1, 

0, 1, 0, 0, 0, 
1, 0, 0, 0, 0, 
0, 0, 0, 1, 0, 
0, 0, 1, 0, 0, 
0, 0, 0, 0, 1, 

1, 0, 0, 0, 0, 
0, 1, 0, 0, 0, 
0, 0, 0, 1, 0, 
0, 0, 1, 0, 0, 
0, 0, 0, 0, 1, 

0, 0, 1, 0, 0, 
0, 1, 0, 0, 0, 
1, 0, 0, 0, 0, 
0, 0, 0, 1, 0, 
0, 0, 0, 0, 1, 

0, 1, 0, 0, 0, 
0, 0, 1, 0, 0, 
1, 0, 0, 0, 0, 
0, 0, 0, 1, 0, 
0, 0, 0, 0, 1, 

0, 0, 1, 0, 0, 
1, 0, 0, 0, 0, 
0, 1, 0, 0, 0, 
0, 0, 0, 1, 0, 
0, 0, 0, 0, 1, 

1, 0, 0, 0, 0, 
0, 0, 1, 0, 0, 
0, 1, 0, 0, 0, 
0, 0, 0, 1, 0, 
0, 0, 0, 0, 1, 

0, 1, 0, 0, 0, 
1, 0, 0, 0, 0, 
0, 0, 1, 0, 0, 
0, 0, 0, 1, 0, 
0, 0, 0, 0, 1, 

1, 0, 0, 0, 0, 
0, 1, 0, 0, 0, 
0, 0, 1, 0, 0, 
0, 0, 0, 1, 0, 
0, 0, 0, 0, 1, 
]);
